arg(a1).
arg(a2).
att(a1,a2).
att(a2,a1).
arg(b1).
arg(b2).
att(b1,b2).
att(b2,b1).
arg(c1).
arg(c2).
att(c1,c2).
att(c2,c1).
arg(d1).
arg(d2).
att(d1,d2).
att(d2,d1).
arg(e1).
arg(e2).
att(e1,e2).
att(e2,e1).
arg(f1).
arg(f2).
att(f1,f2).
att(f2,f1).
arg(g1).
arg(g2).
att(g1,g2).
att(g2,g1).
arg(h1).
arg(h2).
att(h1,h2).
att(h2,h1).
arg(i1).
arg(i2).
att(i1,i2).
att(i2,i1).
arg(j1).
arg(j2).
att(j1,j2).
att(j2,j1).
arg(k1).
arg(k2).
att(k1,k2).
att(k2,k1).
arg(l1).
arg(l2).
att(l1,l2).
att(l2,l1).
arg(m1).
arg(m2).
att(m1,m2).
att(m2,m1).
arg(n1).
arg(n2).
att(n1,n2).
att(n2,n1).
arg(o1).
arg(o2).
att(o1,o2).
att(o2,o1).
arg(p1).
arg(p2).
att(p1,p2).
att(p2,p1).
arg(q1).
arg(q2).
att(q1,q2).
att(q2,q1).
arg(r1).
arg(r2).
att(r1,r2).
att(r2,r1).
arg(s1).
arg(s2).
att(s1,s2).
att(s2,s1).
arg(t1).
arg(t2).
att(t1,t2).
att(t2,t1).
arg(z1).
arg(z2).
arg(z3).
arg(z4).
arg(z5).
arg(z6).
arg(z7).
arg(z8).
arg(z9).
arg(z10).
arg(z11).
arg(z12).
arg(z13).
arg(z14).
arg(z15).
arg(z16).
arg(z17).
arg(z18).
arg(z19).
arg(z20).
arg(z21).
arg(z22).
arg(z23).
arg(z24).
arg(z25).
arg(z26).
arg(z27).
arg(z28).
arg(z29).
arg(z30).
arg(z31).
arg(z32).
arg(z33).
arg(z34).
arg(z35).
arg(z36).
arg(z37).
arg(z38).
arg(z39).
arg(z40).
arg(z41).
arg(z42).
arg(z43).
arg(z44).
arg(z45).
arg(z46).
arg(z47).
arg(z48).
arg(z49).
arg(z50).
arg(z51).
arg(z52).
arg(z53).
arg(z54).
arg(z55).
arg(z56).
arg(z57).
arg(z58).
arg(z59).
arg(z60).
arg(z61).
arg(z62).
arg(z63).
arg(z64).
arg(z65).
arg(z66).
arg(z67).
arg(z68).
arg(z69).
arg(z70).
arg(z71).
arg(z72).
arg(z73).
arg(z74).
arg(z75).
arg(z76).
arg(z77).
arg(z78).
arg(z79).
arg(z80).
arg(z81).
arg(z82).
arg(z83).
arg(z84).
arg(z85).
arg(z86).
arg(z87).
arg(z88).
arg(z89).
arg(z90).
arg(z91).
arg(z92).
arg(z93).
arg(z94).
arg(z95).
arg(z96).
arg(z97).
arg(z98).
arg(z99).
arg(z100).
att(z1,z2).
att(z2,z3).
att(z3,z4).
att(z4,z5).
att(z5,z6).
att(z6,z7).
att(z7,z8).
att(z8,z9).
att(z9,z10).
att(z10,z11).
att(z11,z12).
att(z12,z13).
att(z13,z14).
att(z14,z15).
att(z15,z16).
att(z16,z17).
att(z17,z18).
att(z18,z19).
att(z19,z20).
att(z20,z21).
att(z21,z22).
att(z22,z23).
att(z23,z24).
att(z24,z25).
att(z25,z26).
att(z26,z27).
att(z27,z28).
att(z28,z29).
att(z29,z30).
att(z30,z31).
att(z31,z32).
att(z32,z33).
att(z33,z34).
att(z34,z35).
att(z35,z36).
att(z36,z37).
att(z37,z38).
att(z38,z39).
att(z39,z40).
att(z40,z41).
att(z41,z42).
att(z42,z43).
att(z43,z44).
att(z44,z45).
att(z45,z46).
att(z46,z47).
att(z47,z48).
att(z48,z49).
att(z49,z50).
att(z50,z51).
att(z51,z52).
att(z52,z53).
att(z53,z54).
att(z54,z55).
att(z55,z56).
att(z56,z57).
att(z57,z58).
att(z58,z59).
att(z59,z60).
att(z60,z61).
att(z61,z62).
att(z62,z63).
att(z63,z64).
att(z64,z65).
att(z65,z66).
att(z66,z67).
att(z67,z68).
att(z68,z69).
att(z69,z70).
att(z70,z71).
att(z71,z72).
att(z72,z73).
att(z73,z74).
att(z74,z75).
att(z75,z76).
att(z76,z77).
att(z77,z78).
att(z78,z79).
att(z79,z80).
att(z80,z81).
att(z81,z82).
att(z82,z83).
att(z83,z84).
att(z84,z85).
att(z85,z86).
att(z86,z87).
att(z87,z88).
att(z88,z89).
att(z89,z90).
att(z90,z91).
att(z91,z92).
att(z92,z93).
att(z93,z94).
att(z94,z95).
att(z95,z96).
!in(a1) -> out(a1).
!in(a2) -> out(a2).
!in(b1) -> out(b1).
!in(b2) -> out(b2).
!in(c1) -> out(c1).
!in(c2) -> out(c2).
!in(d1) -> out(d1).
!in(d2) -> out(d2).
!in(e1) -> out(e1).
!in(e2) -> out(e2).
!in(f1) -> out(f1).
!in(f2) -> out(f2).
!in(g1) -> out(g1).
!in(g2) -> out(g2).
!in(h1) -> out(h1).
!in(h2) -> out(h2).
!in(i1) -> out(i1).
!in(i2) -> out(i2).
!in(j1) -> out(j1).
!in(j2) -> out(j2).
!in(k1) -> out(k1).
!in(k2) -> out(k2).
!in(l1) -> out(l1).
!in(l2) -> out(l2).
!in(m1) -> out(m1).
!in(m2) -> out(m2).
!in(n1) -> out(n1).
!in(n2) -> out(n2).
!in(o1) -> out(o1).
!in(o2) -> out(o2).
!in(p1) -> out(p1).
!in(p2) -> out(p2).
!in(q1) -> out(q1).
!in(q2) -> out(q2).
!in(r1) -> out(r1).
!in(r2) -> out(r2).
!in(s1) -> out(s1).
!in(s2) -> out(s2).
!in(t1) -> out(t1).
!in(t2) -> out(t2).
!in(z1) -> out(z1).
!in(z2) -> out(z2).
!in(z3) -> out(z3).
!in(z4) -> out(z4).
!in(z5) -> out(z5).
!in(z6) -> out(z6).
!in(z7) -> out(z7).
!in(z8) -> out(z8).
!in(z9) -> out(z9).
!in(z10) -> out(z10).
!in(z11) -> out(z11).
!in(z12) -> out(z12).
!in(z13) -> out(z13).
!in(z14) -> out(z14).
!in(z15) -> out(z15).
!in(z16) -> out(z16).
!in(z17) -> out(z17).
!in(z18) -> out(z18).
!in(z19) -> out(z19).
!in(z20) -> out(z20).
!in(z21) -> out(z21).
!in(z22) -> out(z22).
!in(z23) -> out(z23).
!in(z24) -> out(z24).
!in(z25) -> out(z25).
!in(z26) -> out(z26).
!in(z27) -> out(z27).
!in(z28) -> out(z28).
!in(z29) -> out(z29).
!in(z30) -> out(z30).
!in(z31) -> out(z31).
!in(z32) -> out(z32).
!in(z33) -> out(z33).
!in(z34) -> out(z34).
!in(z35) -> out(z35).
!in(z36) -> out(z36).
!in(z37) -> out(z37).
!in(z38) -> out(z38).
!in(z39) -> out(z39).
!in(z40) -> out(z40).
!in(z41) -> out(z41).
!in(z42) -> out(z42).
!in(z43) -> out(z43).
!in(z44) -> out(z44).
!in(z45) -> out(z45).
!in(z46) -> out(z46).
!in(z47) -> out(z47).
!in(z48) -> out(z48).
!in(z49) -> out(z49).
!in(z50) -> out(z50).
!in(z51) -> out(z51).
!in(z52) -> out(z52).
!in(z53) -> out(z53).
!in(z54) -> out(z54).
!in(z55) -> out(z55).
!in(z56) -> out(z56).
!in(z57) -> out(z57).
!in(z58) -> out(z58).
!in(z59) -> out(z59).
!in(z60) -> out(z60).
!in(z61) -> out(z61).
!in(z62) -> out(z62).
!in(z63) -> out(z63).
!in(z64) -> out(z64).
!in(z65) -> out(z65).
!in(z66) -> out(z66).
!in(z67) -> out(z67).
!in(z68) -> out(z68).
!in(z69) -> out(z69).
!in(z70) -> out(z70).
!in(z71) -> out(z71).
!in(z72) -> out(z72).
!in(z73) -> out(z73).
!in(z74) -> out(z74).
!in(z75) -> out(z75).
!in(z76) -> out(z76).
!in(z77) -> out(z77).
!in(z78) -> out(z78).
!in(z79) -> out(z79).
!in(z80) -> out(z80).
!in(z81) -> out(z81).
!in(z82) -> out(z82).
!in(z83) -> out(z83).
!in(z84) -> out(z84).
!in(z85) -> out(z85).
!in(z86) -> out(z86).
!in(z87) -> out(z87).
!in(z88) -> out(z88).
!in(z89) -> out(z89).
!in(z90) -> out(z90).
!in(z91) -> out(z91).
!in(z92) -> out(z92).
!in(z93) -> out(z93).
!in(z94) -> out(z94).
!in(z95) -> out(z95).
!in(z96) -> out(z96).
!in(z97) -> out(z97).
!in(z98) -> out(z98).
!in(z99) -> out(z99).
!in(z100) -> out(z100).
!out(a1) -> in(a1).
!out(a2) -> in(a2).
!out(b1) -> in(b1).
!out(b2) -> in(b2).
!out(c1) -> in(c1).
!out(c2) -> in(c2).
!out(d1) -> in(d1).
!out(d2) -> in(d2).
!out(e1) -> in(e1).
!out(e2) -> in(e2).
!out(f1) -> in(f1).
!out(f2) -> in(f2).
!out(g1) -> in(g1).
!out(g2) -> in(g2).
!out(h1) -> in(h1).
!out(h2) -> in(h2).
!out(i1) -> in(i1).
!out(i2) -> in(i2).
!out(j1) -> in(j1).
!out(j2) -> in(j2).
!out(k1) -> in(k1).
!out(k2) -> in(k2).
!out(l1) -> in(l1).
!out(l2) -> in(l2).
!out(m1) -> in(m1).
!out(m2) -> in(m2).
!out(n1) -> in(n1).
!out(n2) -> in(n2).
!out(o1) -> in(o1).
!out(o2) -> in(o2).
!out(p1) -> in(p1).
!out(p2) -> in(p2).
!out(q1) -> in(q1).
!out(q2) -> in(q2).
!out(r1) -> in(r1).
!out(r2) -> in(r2).
!out(s1) -> in(s1).
!out(s2) -> in(s2).
!out(t1) -> in(t1).
!out(t2) -> in(t2).
!out(z1) -> in(z1).
!out(z2) -> in(z2).
!out(z3) -> in(z3).
!out(z4) -> in(z4).
!out(z5) -> in(z5).
!out(z6) -> in(z6).
!out(z7) -> in(z7).
!out(z8) -> in(z8).
!out(z9) -> in(z9).
!out(z10) -> in(z10).
!out(z11) -> in(z11).
!out(z12) -> in(z12).
!out(z13) -> in(z13).
!out(z14) -> in(z14).
!out(z15) -> in(z15).
!out(z16) -> in(z16).
!out(z17) -> in(z17).
!out(z18) -> in(z18).
!out(z19) -> in(z19).
!out(z20) -> in(z20).
!out(z21) -> in(z21).
!out(z22) -> in(z22).
!out(z23) -> in(z23).
!out(z24) -> in(z24).
!out(z25) -> in(z25).
!out(z26) -> in(z26).
!out(z27) -> in(z27).
!out(z28) -> in(z28).
!out(z29) -> in(z29).
!out(z30) -> in(z30).
!out(z31) -> in(z31).
!out(z32) -> in(z32).
!out(z33) -> in(z33).
!out(z34) -> in(z34).
!out(z35) -> in(z35).
!out(z36) -> in(z36).
!out(z37) -> in(z37).
!out(z38) -> in(z38).
!out(z39) -> in(z39).
!out(z40) -> in(z40).
!out(z41) -> in(z41).
!out(z42) -> in(z42).
!out(z43) -> in(z43).
!out(z44) -> in(z44).
!out(z45) -> in(z45).
!out(z46) -> in(z46).
!out(z47) -> in(z47).
!out(z48) -> in(z48).
!out(z49) -> in(z49).
!out(z50) -> in(z50).
!out(z51) -> in(z51).
!out(z52) -> in(z52).
!out(z53) -> in(z53).
!out(z54) -> in(z54).
!out(z55) -> in(z55).
!out(z56) -> in(z56).
!out(z57) -> in(z57).
!out(z58) -> in(z58).
!out(z59) -> in(z59).
!out(z60) -> in(z60).
!out(z61) -> in(z61).
!out(z62) -> in(z62).
!out(z63) -> in(z63).
!out(z64) -> in(z64).
!out(z65) -> in(z65).
!out(z66) -> in(z66).
!out(z67) -> in(z67).
!out(z68) -> in(z68).
!out(z69) -> in(z69).
!out(z70) -> in(z70).
!out(z71) -> in(z71).
!out(z72) -> in(z72).
!out(z73) -> in(z73).
!out(z74) -> in(z74).
!out(z75) -> in(z75).
!out(z76) -> in(z76).
!out(z77) -> in(z77).
!out(z78) -> in(z78).
!out(z79) -> in(z79).
!out(z80) -> in(z80).
!out(z81) -> in(z81).
!out(z82) -> in(z82).
!out(z83) -> in(z83).
!out(z84) -> in(z84).
!out(z85) -> in(z85).
!out(z86) -> in(z86).
!out(z87) -> in(z87).
!out(z88) -> in(z88).
!out(z89) -> in(z89).
!out(z90) -> in(z90).
!out(z91) -> in(z91).
!out(z92) -> in(z92).
!out(z93) -> in(z93).
!out(z94) -> in(z94).
!out(z95) -> in(z95).
!out(z96) -> in(z96).
!out(z97) -> in(z97).
!out(z98) -> in(z98).
!out(z99) -> in(z99).
!out(z100) -> in(z100).
in(a1) -> defeated(a2).
in(a2) -> defeated(a1).
in(b1) -> defeated(b2).
in(b2) -> defeated(b1).
in(c1) -> defeated(c2).
in(c2) -> defeated(c1).
in(d1) -> defeated(d2).
in(d2) -> defeated(d1).
in(e1) -> defeated(e2).
in(e2) -> defeated(e1).
in(f1) -> defeated(f2).
in(f2) -> defeated(f1).
in(g1) -> defeated(g2).
in(g2) -> defeated(g1).
in(h1) -> defeated(h2).
in(h2) -> defeated(h1).
in(i1) -> defeated(i2).
in(i2) -> defeated(i1).
in(j1) -> defeated(j2).
in(j2) -> defeated(j1).
in(k1) -> defeated(k2).
in(k2) -> defeated(k1).
in(l1) -> defeated(l2).
in(l2) -> defeated(l1).
in(m1) -> defeated(m2).
in(m2) -> defeated(m1).
in(n1) -> defeated(n2).
in(n2) -> defeated(n1).
in(o1) -> defeated(o2).
in(o2) -> defeated(o1).
in(p1) -> defeated(p2).
in(p2) -> defeated(p1).
in(q1) -> defeated(q2).
in(q2) -> defeated(q1).
in(r1) -> defeated(r2).
in(r2) -> defeated(r1).
in(s1) -> defeated(s2).
in(s2) -> defeated(s1).
in(t1) -> defeated(t2).
in(t2) -> defeated(t1).
in(z1) -> defeated(z2).
in(z2) -> defeated(z3).
in(z3) -> defeated(z4).
in(z4) -> defeated(z5).
in(z5) -> defeated(z6).
in(z6) -> defeated(z7).
in(z7) -> defeated(z8).
in(z8) -> defeated(z9).
in(z9) -> defeated(z10).
in(z10) -> defeated(z11).
in(z11) -> defeated(z12).
in(z12) -> defeated(z13).
in(z13) -> defeated(z14).
in(z14) -> defeated(z15).
in(z15) -> defeated(z16).
in(z16) -> defeated(z17).
in(z17) -> defeated(z18).
in(z18) -> defeated(z19).
in(z19) -> defeated(z20).
in(z20) -> defeated(z21).
in(z21) -> defeated(z22).
in(z22) -> defeated(z23).
in(z23) -> defeated(z24).
in(z24) -> defeated(z25).
in(z25) -> defeated(z26).
in(z26) -> defeated(z27).
in(z27) -> defeated(z28).
in(z28) -> defeated(z29).
in(z29) -> defeated(z30).
in(z30) -> defeated(z31).
in(z31) -> defeated(z32).
in(z32) -> defeated(z33).
in(z33) -> defeated(z34).
in(z34) -> defeated(z35).
in(z35) -> defeated(z36).
in(z36) -> defeated(z37).
in(z37) -> defeated(z38).
in(z38) -> defeated(z39).
in(z39) -> defeated(z40).
in(z40) -> defeated(z41).
in(z41) -> defeated(z42).
in(z42) -> defeated(z43).
in(z43) -> defeated(z44).
in(z44) -> defeated(z45).
in(z45) -> defeated(z46).
in(z46) -> defeated(z47).
in(z47) -> defeated(z48).
in(z48) -> defeated(z49).
in(z49) -> defeated(z50).
in(z50) -> defeated(z51).
in(z51) -> defeated(z52).
in(z52) -> defeated(z53).
in(z53) -> defeated(z54).
in(z54) -> defeated(z55).
in(z55) -> defeated(z56).
in(z56) -> defeated(z57).
in(z57) -> defeated(z58).
in(z58) -> defeated(z59).
in(z59) -> defeated(z60).
in(z60) -> defeated(z61).
in(z61) -> defeated(z62).
in(z62) -> defeated(z63).
in(z63) -> defeated(z64).
in(z64) -> defeated(z65).
in(z65) -> defeated(z66).
in(z66) -> defeated(z67).
in(z67) -> defeated(z68).
in(z68) -> defeated(z69).
in(z69) -> defeated(z70).
in(z70) -> defeated(z71).
in(z71) -> defeated(z72).
in(z72) -> defeated(z73).
in(z73) -> defeated(z74).
in(z74) -> defeated(z75).
in(z75) -> defeated(z76).
in(z76) -> defeated(z77).
in(z77) -> defeated(z78).
in(z78) -> defeated(z79).
in(z79) -> defeated(z80).
in(z80) -> defeated(z81).
in(z81) -> defeated(z82).
in(z82) -> defeated(z83).
in(z83) -> defeated(z84).
in(z84) -> defeated(z85).
in(z85) -> defeated(z86).
in(z86) -> defeated(z87).
in(z87) -> defeated(z88).
in(z88) -> defeated(z89).
in(z89) -> defeated(z90).
in(z90) -> defeated(z91).
in(z91) -> defeated(z92).
in(z92) -> defeated(z93).
in(z93) -> defeated(z94).
in(z94) -> defeated(z95).
in(z95) -> defeated(z96).
out(a1)&!defeated(a1) -> 0.
out(a2)&!defeated(a2) -> 0.
out(b1)&!defeated(b1) -> 0.
out(b2)&!defeated(b2) -> 0.
out(c1)&!defeated(c1) -> 0.
out(c2)&!defeated(c2) -> 0.
out(d1)&!defeated(d1) -> 0.
out(d2)&!defeated(d2) -> 0.
out(e1)&!defeated(e1) -> 0.
out(e2)&!defeated(e2) -> 0.
out(f1)&!defeated(f1) -> 0.
out(f2)&!defeated(f2) -> 0.
out(g1)&!defeated(g1) -> 0.
out(g2)&!defeated(g2) -> 0.
out(h1)&!defeated(h1) -> 0.
out(h2)&!defeated(h2) -> 0.
out(i1)&!defeated(i1) -> 0.
out(i2)&!defeated(i2) -> 0.
out(j1)&!defeated(j1) -> 0.
out(j2)&!defeated(j2) -> 0.
out(k1)&!defeated(k1) -> 0.
out(k2)&!defeated(k2) -> 0.
out(l1)&!defeated(l1) -> 0.
out(l2)&!defeated(l2) -> 0.
out(m1)&!defeated(m1) -> 0.
out(m2)&!defeated(m2) -> 0.
out(n1)&!defeated(n1) -> 0.
out(n2)&!defeated(n2) -> 0.
out(o1)&!defeated(o1) -> 0.
out(o2)&!defeated(o2) -> 0.
out(p1)&!defeated(p1) -> 0.
out(p2)&!defeated(p2) -> 0.
out(q1)&!defeated(q1) -> 0.
out(q2)&!defeated(q2) -> 0.
out(r1)&!defeated(r1) -> 0.
out(r2)&!defeated(r2) -> 0.
out(s1)&!defeated(s1) -> 0.
out(s2)&!defeated(s2) -> 0.
out(t1)&!defeated(t1) -> 0.
out(t2)&!defeated(t2) -> 0.
out(z1) -> 0.
out(z2)&!defeated(z2) -> 0.
out(z3)&!defeated(z3) -> 0.
out(z4)&!defeated(z4) -> 0.
out(z5)&!defeated(z5) -> 0.
out(z6)&!defeated(z6) -> 0.
out(z7)&!defeated(z7) -> 0.
out(z8)&!defeated(z8) -> 0.
out(z9)&!defeated(z9) -> 0.
out(z10)&!defeated(z10) -> 0.
out(z11)&!defeated(z11) -> 0.
out(z12)&!defeated(z12) -> 0.
out(z13)&!defeated(z13) -> 0.
out(z14)&!defeated(z14) -> 0.
out(z15)&!defeated(z15) -> 0.
out(z16)&!defeated(z16) -> 0.
out(z17)&!defeated(z17) -> 0.
out(z18)&!defeated(z18) -> 0.
out(z19)&!defeated(z19) -> 0.
out(z20)&!defeated(z20) -> 0.
out(z21)&!defeated(z21) -> 0.
out(z22)&!defeated(z22) -> 0.
out(z23)&!defeated(z23) -> 0.
out(z24)&!defeated(z24) -> 0.
out(z25)&!defeated(z25) -> 0.
out(z26)&!defeated(z26) -> 0.
out(z27)&!defeated(z27) -> 0.
out(z28)&!defeated(z28) -> 0.
out(z29)&!defeated(z29) -> 0.
out(z30)&!defeated(z30) -> 0.
out(z31)&!defeated(z31) -> 0.
out(z32)&!defeated(z32) -> 0.
out(z33)&!defeated(z33) -> 0.
out(z34)&!defeated(z34) -> 0.
out(z35)&!defeated(z35) -> 0.
out(z36)&!defeated(z36) -> 0.
out(z37)&!defeated(z37) -> 0.
out(z38)&!defeated(z38) -> 0.
out(z39)&!defeated(z39) -> 0.
out(z40)&!defeated(z40) -> 0.
out(z41)&!defeated(z41) -> 0.
out(z42)&!defeated(z42) -> 0.
out(z43)&!defeated(z43) -> 0.
out(z44)&!defeated(z44) -> 0.
out(z45)&!defeated(z45) -> 0.
out(z46)&!defeated(z46) -> 0.
out(z47)&!defeated(z47) -> 0.
out(z48)&!defeated(z48) -> 0.
out(z49)&!defeated(z49) -> 0.
out(z50)&!defeated(z50) -> 0.
out(z51)&!defeated(z51) -> 0.
out(z52)&!defeated(z52) -> 0.
out(z53)&!defeated(z53) -> 0.
out(z54)&!defeated(z54) -> 0.
out(z55)&!defeated(z55) -> 0.
out(z56)&!defeated(z56) -> 0.
out(z57)&!defeated(z57) -> 0.
out(z58)&!defeated(z58) -> 0.
out(z59)&!defeated(z59) -> 0.
out(z60)&!defeated(z60) -> 0.
out(z61)&!defeated(z61) -> 0.
out(z62)&!defeated(z62) -> 0.
out(z63)&!defeated(z63) -> 0.
out(z64)&!defeated(z64) -> 0.
out(z65)&!defeated(z65) -> 0.
out(z66)&!defeated(z66) -> 0.
out(z67)&!defeated(z67) -> 0.
out(z68)&!defeated(z68) -> 0.
out(z69)&!defeated(z69) -> 0.
out(z70)&!defeated(z70) -> 0.
out(z71)&!defeated(z71) -> 0.
out(z72)&!defeated(z72) -> 0.
out(z73)&!defeated(z73) -> 0.
out(z74)&!defeated(z74) -> 0.
out(z75)&!defeated(z75) -> 0.
out(z76)&!defeated(z76) -> 0.
out(z77)&!defeated(z77) -> 0.
out(z78)&!defeated(z78) -> 0.
out(z79)&!defeated(z79) -> 0.
out(z80)&!defeated(z80) -> 0.
out(z81)&!defeated(z81) -> 0.
out(z82)&!defeated(z82) -> 0.
out(z83)&!defeated(z83) -> 0.
out(z84)&!defeated(z84) -> 0.
out(z85)&!defeated(z85) -> 0.
out(z86)&!defeated(z86) -> 0.
out(z87)&!defeated(z87) -> 0.
out(z88)&!defeated(z88) -> 0.
out(z89)&!defeated(z89) -> 0.
out(z90)&!defeated(z90) -> 0.
out(z91)&!defeated(z91) -> 0.
out(z92)&!defeated(z92) -> 0.
out(z93)&!defeated(z93) -> 0.
out(z94)&!defeated(z94) -> 0.
out(z95)&!defeated(z95) -> 0.
out(z96)&!defeated(z96) -> 0.
out(z97) -> 0.
out(z98) -> 0.
out(z99) -> 0.
out(z100) -> 0.
in(a2)&in(a1) -> 0.
in(a1)&in(a2) -> 0.
in(b2)&in(b1) -> 0.
in(b1)&in(b2) -> 0.
in(c2)&in(c1) -> 0.
in(c1)&in(c2) -> 0.
in(d2)&in(d1) -> 0.
in(d1)&in(d2) -> 0.
in(e2)&in(e1) -> 0.
in(e1)&in(e2) -> 0.
in(f2)&in(f1) -> 0.
in(f1)&in(f2) -> 0.
in(g2)&in(g1) -> 0.
in(g1)&in(g2) -> 0.
in(h2)&in(h1) -> 0.
in(h1)&in(h2) -> 0.
in(i2)&in(i1) -> 0.
in(i1)&in(i2) -> 0.
in(j2)&in(j1) -> 0.
in(j1)&in(j2) -> 0.
in(k2)&in(k1) -> 0.
in(k1)&in(k2) -> 0.
in(l2)&in(l1) -> 0.
in(l1)&in(l2) -> 0.
in(m2)&in(m1) -> 0.
in(m1)&in(m2) -> 0.
in(n2)&in(n1) -> 0.
in(n1)&in(n2) -> 0.
in(o2)&in(o1) -> 0.
in(o1)&in(o2) -> 0.
in(p2)&in(p1) -> 0.
in(p1)&in(p2) -> 0.
in(q2)&in(q1) -> 0.
in(q1)&in(q2) -> 0.
in(r2)&in(r1) -> 0.
in(r1)&in(r2) -> 0.
in(s2)&in(s1) -> 0.
in(s1)&in(s2) -> 0.
in(t2)&in(t1) -> 0.
in(t1)&in(t2) -> 0.
in(z2)&in(z1) -> 0.
in(z3)&in(z2) -> 0.
in(z4)&in(z3) -> 0.
in(z5)&in(z4) -> 0.
in(z6)&in(z5) -> 0.
in(z7)&in(z6) -> 0.
in(z8)&in(z7) -> 0.
in(z9)&in(z8) -> 0.
in(z10)&in(z9) -> 0.
in(z11)&in(z10) -> 0.
in(z12)&in(z11) -> 0.
in(z13)&in(z12) -> 0.
in(z14)&in(z13) -> 0.
in(z15)&in(z14) -> 0.
in(z16)&in(z15) -> 0.
in(z17)&in(z16) -> 0.
in(z18)&in(z17) -> 0.
in(z19)&in(z18) -> 0.
in(z20)&in(z19) -> 0.
in(z21)&in(z20) -> 0.
in(z22)&in(z21) -> 0.
in(z23)&in(z22) -> 0.
in(z24)&in(z23) -> 0.
in(z25)&in(z24) -> 0.
in(z26)&in(z25) -> 0.
in(z27)&in(z26) -> 0.
in(z28)&in(z27) -> 0.
in(z29)&in(z28) -> 0.
in(z30)&in(z29) -> 0.
in(z31)&in(z30) -> 0.
in(z32)&in(z31) -> 0.
in(z33)&in(z32) -> 0.
in(z34)&in(z33) -> 0.
in(z35)&in(z34) -> 0.
in(z36)&in(z35) -> 0.
in(z37)&in(z36) -> 0.
in(z38)&in(z37) -> 0.
in(z39)&in(z38) -> 0.
in(z40)&in(z39) -> 0.
in(z41)&in(z40) -> 0.
in(z42)&in(z41) -> 0.
in(z43)&in(z42) -> 0.
in(z44)&in(z43) -> 0.
in(z45)&in(z44) -> 0.
in(z46)&in(z45) -> 0.
in(z47)&in(z46) -> 0.
in(z48)&in(z47) -> 0.
in(z49)&in(z48) -> 0.
in(z50)&in(z49) -> 0.
in(z51)&in(z50) -> 0.
in(z52)&in(z51) -> 0.
in(z53)&in(z52) -> 0.
in(z54)&in(z53) -> 0.
in(z55)&in(z54) -> 0.
in(z56)&in(z55) -> 0.
in(z57)&in(z56) -> 0.
in(z58)&in(z57) -> 0.
in(z59)&in(z58) -> 0.
in(z60)&in(z59) -> 0.
in(z61)&in(z60) -> 0.
in(z62)&in(z61) -> 0.
in(z63)&in(z62) -> 0.
in(z64)&in(z63) -> 0.
in(z65)&in(z64) -> 0.
in(z66)&in(z65) -> 0.
in(z67)&in(z66) -> 0.
in(z68)&in(z67) -> 0.
in(z69)&in(z68) -> 0.
in(z70)&in(z69) -> 0.
in(z71)&in(z70) -> 0.
in(z72)&in(z71) -> 0.
in(z73)&in(z72) -> 0.
in(z74)&in(z73) -> 0.
in(z75)&in(z74) -> 0.
in(z76)&in(z75) -> 0.
in(z77)&in(z76) -> 0.
in(z78)&in(z77) -> 0.
in(z79)&in(z78) -> 0.
in(z80)&in(z79) -> 0.
in(z81)&in(z80) -> 0.
in(z82)&in(z81) -> 0.
in(z83)&in(z82) -> 0.
in(z84)&in(z83) -> 0.
in(z85)&in(z84) -> 0.
in(z86)&in(z85) -> 0.
in(z87)&in(z86) -> 0.
in(z88)&in(z87) -> 0.
in(z89)&in(z88) -> 0.
in(z90)&in(z89) -> 0.
in(z91)&in(z90) -> 0.
in(z92)&in(z91) -> 0.
in(z93)&in(z92) -> 0.
in(z94)&in(z93) -> 0.
in(z95)&in(z94) -> 0.
in(z96)&in(z95) -> 0.